c as-733: Autonomous Systems (from the BGP logs) from January 02 2000 https://snap.stanford.edu/data/as-733.html
p edge 80 79
e 1 34
e 2 63
e 2 31
e 2 64
e 2 65
e 2 53
e 2 7
e 2 70
e 2 24
e 2 11
e 2 39
e 2 50
e 2 35
e 2 34
e 2 40
e 2 78
e 2 8
e 2 33
e 2 48
e 2 42
e 2 36
e 2 60
e 2 26
e 2 46
e 2 14
e 3 61
e 4 7
e 5 61
e 6 7
e 7 55
e 7 44
e 7 20
e 7 22
e 7 19
e 7 79
e 7 9
e 7 75
e 7 43
e 7 21
e 7 51
e 7 71
e 7 52
e 7 10
e 7 76
e 7 59
e 7 54
e 12 23
e 13 49
e 13 28
e 13 38
e 13 17
e 13 29
e 13 63
e 13 72
e 13 16
e 15 23
e 18 23
e 21 69
e 23 56
e 23 41
e 23 27
e 23 57
e 23 30
e 23 65
e 25 61
e 32 61
e 37 62
e 37 69
e 45 61
e 47 53
e 48 73
e 58 61
e 61 67
e 61 73
e 61 77
e 61 80
e 61 66
e 62 74
e 62 68
l 10
t 3 68
